53
11
0 11 14 15 17 18 22 23 24 25 26 27 31 32 35 36 37 38 40 41 42 43 44 45 47 50 51 52
1 12 13 14 15 16 17 18 22 24 27 30 31 32 33 35 36 38 43 45 47 48 51 52
2 18 22 25 27 30 32 33 34 35 38 40 41 45 47 48 50 52
3 12 14 15 16 17 19 21 22 24 25 27 32 33 35 36 41 43 45 46 49 51
4 12 14 16 18 24 25 27 30 31 32 34 35 36 38 43 44 47 50 52
5 11 12 15 20 24 27 29 30 31 32 34 35 43 45 52
6 12 22 23 28 29 35 43 47 50 52
7 12 13 15 20 24 25 36 38 42 43 51 52
8 20 21 22 36 44
9 13 15 17 18 19 26 27 28 34 38 46
10 39
